c A SAT instance generated from a 3-CNF formula that had 40 clauses and 8 variables
p cnf 8 40
3 -4 -2 0
-5 -2 7 0
-3 -1 6 0
1 -3 -4 0
6 8 -3 0
-3 -7 1 0
-7 4 2 0
7 8 5 0
-7 8 4 0
3 -8 4 0
-4 1 5 0
5 -3 6 0
6 -1 -8 0
3 7 -5 0
1 -3 -5 0
7 3 4 0
-8 -4 6 0
-3 -5 6 0
4 -6 8 0
1 -3 -2 0
5 4 1 0
4 6 -1 0
7 4 -2 0
-5 8 1 0
-6 8 -2 0
-3 6 5 0
7 -5 -1 0
-5 4 -7 0
6 1 -8 0
8 -5 1 0
-3 5 8 0
6 5 3 0
7 5 6 0
3 -4 -2 0
-7 -5 -4 0
-7 3 5 0
1 -4 -3 0
8 -5 7 0
4 -6 1 0
7 4 -1 0
